short instances (for exacts)/A-n09-k3.vrp
NAME : A-n09-k3
COMMENT : (???)
TYPE : CVRP
DIMENSION : 9
EDGE_WEIGHT_TYPE : EUC_2D 
CAPACITY : 60
NODE_COORD_SECTION 
 1 82 76
 2 58 30
 3 5 10
 4 98 52
 5 1 65
 6 88 51
 7 19 32
 8 50 93
 9 42 9
DEMAND_SECTION 
1 0 
2 12 
3 14 
4 21 
5 22 
6 18 
7 1 
8 8 
9 8 
DEPOT_SECTION 
 1  
 -1  
EOF 
