solutions/A/A-n09-k3
6 4  (39)
5 7 3 9 2  (57)
8  (8)
Cost 397.784

